c FILE: i160-001

c SOURCE: From steinlib

c DESCRIPTION: Steinlib instance with 160 nodes and 240 edges.

p edge 160 240
e 1 61
e 1 62
e 1 64
e 1 69
e 1 120
e 1 154
e 2 12
e 2 32
e 2 60
e 3 20
e 4 27
e 4 141
e 4 148
e 5 21
e 5 29
e 5 40
e 5 122
e 6 87
e 6 132
e 7 17
e 8 35
e 8 39
e 8 47
e 8 78
e 8 145
e 9 39
e 9 118
e 9 150
e 10 70
e 10 91
e 10 138
e 10 152
e 11 129
e 11 142
e 12 31
e 12 35
e 12 135
e 13 109
e 14 20
e 14 63
e 15 46
e 15 144
e 16 141
e 16 142
e 17 51
e 17 142
e 17 153
e 18 71
e 18 101
e 19 80
e 19 137
e 20 31
e 20 121
e 21 34
e 21 35
e 21 83
e 21 91
e 21 103
e 21 104
e 21 136
e 21 154
e 22 37
e 22 63
e 22 94
e 22 102
e 22 132
e 23 113
e 24 114
e 24 115
e 25 50
e 26 86
e 26 159
e 27 157
e 28 75
e 28 142
e 29 34
e 30 109
e 31 77
e 31 80
e 31 154
e 32 36
e 32 63
e 32 68
e 32 84
e 32 134
e 33 68
e 33 81
e 34 35
e 34 128
e 35 73
e 35 108
e 35 116
e 35 152
e 36 38
e 36 76
e 36 147
e 36 154
e 37 108
e 37 160
e 38 63
e 40 63
e 40 67
e 41 104
e 41 116
e 42 64
e 42 97
e 42 145
e 43 47
e 43 50
e 43 98
e 43 134
e 44 135
e 44 157
e 44 158
e 45 134
e 46 67
e 46 115
e 48 106
e 48 116
e 49 71
e 49 154
e 50 103
e 50 114
e 51 69
e 51 71
e 52 99
e 53 72
e 53 125
e 54 64
e 54 100
e 55 132
e 55 137
e 55 141
e 56 118
e 56 129
e 57 122
e 58 85
e 59 76
e 59 110
e 60 115
e 61 106
e 62 92
e 62 132
e 63 113
e 63 118
e 63 150
e 63 152
e 63 160
e 64 115
e 64 123
e 65 127
e 65 154
e 66 104
e 67 89
e 68 77
e 70 107
e 71 154
e 72 99
e 73 76
e 73 85
e 73 89
e 74 86
e 75 77
e 77 86
e 77 96
e 77 127
e 78 94
e 79 81
e 79 111
e 79 139
e 80 125
e 81 88
e 81 124
e 82 102
e 83 100
e 83 109
e 83 117
e 83 120
e 84 98
e 84 112
e 84 127
e 84 142
e 86 104
e 87 120
e 87 160
e 88 115
e 88 145
e 89 141
e 90 127
e 93 126
e 94 100
e 94 104
e 94 143
e 95 128
e 98 121
e 98 128
e 98 137
e 99 105
e 99 142
e 101 160
e 102 118
e 102 131
e 102 149
e 103 119
e 103 158
e 104 124
e 104 141
e 106 109
e 106 121
e 110 115
e 110 151
e 110 155
e 111 158
e 112 144
e 113 133
e 113 152
e 114 116
e 116 149
e 117 142
e 117 144
e 117 151
e 117 154
e 118 127
e 120 160
e 121 139
e 122 138
e 123 151
e 124 130
e 126 146
e 129 138
e 130 135
e 132 148
e 132 155
e 136 137
e 139 140
e 139 147
e 145 160
e 146 152
e 151 153
e 156 158
